p cnf 430 1488
-191 -20 0
-191 -73 0
-191 -143 0
-191 27 0
-191 -119 0
191 20 73 143 -27 119 0
-192 -32 0
-192 74 0
-192 131 0
-192 -164 0
-192 145 0
192 32 -74 -131 164 -145 0
-193 -18 0
-193 36 0
-193 -75 0
-193 -88 0
-193 -124 0
193 18 -36 75 88 124 0
-194 66 0
-194 98 0
-194 -50 0
-194 61 0
-194 -5 0
194 -66 -98 50 -61 5 0
-195 145 0
-195 -179 0
-195 -85 0
-195 9 0
-195 93 0
195 -145 179 85 -9 -93 0
191 192 193 194 195 0
-196 5 0
-196 108 0
-196 -9 0
-196 154 0
-196 133 0
196 -5 -108 9 -154 -133 0
-197 165 0
-197 49 0
-197 48 0
-197 -74 0
-197 -40 0
197 -165 -49 -48 74 40 0
-198 -51 0
-198 57 0
-198 87 0
-198 -10 0
-198 -38 0
198 51 -57 -87 10 38 0
-199 -112 0
-199 -94 0
-199 174 0
-199 132 0
-199 -24 0
199 112 94 -174 -132 24 0
-200 123 0
-200 112 0
-200 106 0
-200 -20 0
-200 161 0
200 -123 -112 -106 20 -161 0
196 197 198 199 200 0
-201 -190 0
-201 34 0
-201 -10 0
-201 -153 0
-201 -134 0
201 190 -34 10 153 134 0
-202 -28 0
-202 -160 0
-202 158 0
-202 -155 0
-202 25 0
202 28 160 -158 155 -25 0
-203 125 0
-203 -148 0
-203 -46 0
-203 -159 0
-203 -68 0
203 -125 148 46 159 68 0
-204 28 0
-204 -3 0
-204 -116 0
-204 -69 0
-204 -131 0
204 -28 3 116 69 131 0
-205 108 0
-205 -105 0
-205 -176 0
-205 44 0
-205 112 0
205 -108 105 176 -44 -112 0
201 202 203 204 205 0
-206 -58 0
-206 -88 0
-206 34 0
-206 -179 0
-206 -135 0
206 58 88 -34 179 135 0
-207 28 0
-207 -112 0
-207 78 0
-207 5 0
-207 48 0
207 -28 112 -78 -5 -48 0
-208 114 0
-208 -12 0
-208 3 0
-208 -161 0
-208 104 0
208 -114 12 -3 161 -104 0
-209 103 0
-209 143 0
-209 -84 0
-209 76 0
-209 26 0
209 -103 -143 84 -76 -26 0
-210 -138 0
-210 -155 0
-210 87 0
-210 122 0
-210 132 0
210 138 155 -87 -122 -132 0
206 207 208 209 210 0
-211 116 0
-211 -101 0
-211 17 0
-211 14 0
-211 -88 0
211 -116 101 -17 -14 88 0
-212 47 0
-212 88 0
-212 89 0
-212 51 0
-212 134 0
212 -47 -88 -89 -51 -134 0
-213 73 0
-213 83 0
-213 123 0
-213 189 0
-213 33 0
213 -73 -83 -123 -189 -33 0
-214 -97 0
-214 190 0
-214 185 0
-214 36 0
-214 -122 0
214 97 -190 -185 -36 122 0
-215 46 0
-215 62 0
-215 104 0
-215 -41 0
-215 -154 0
215 -46 -62 -104 41 154 0
211 212 213 214 215 0
-216 -90 0
-216 -45 0
-216 -29 0
-216 104 0
-216 9 0
216 90 45 29 -104 -9 0
-217 -176 0
-217 107 0
-217 -165 0
-217 -167 0
-217 49 0
217 176 -107 165 167 -49 0
-218 -71 0
-218 -15 0
-218 -82 0
-218 94 0
-218 -68 0
218 71 15 82 -94 68 0
-219 -101 0
-219 -1 0
-219 114 0
-219 129 0
-219 -122 0
219 101 1 -114 -129 122 0
-220 24 0
-220 -146 0
-220 76 0
-220 -44 0
-220 -180 0
220 -24 146 -76 44 180 0
216 217 218 219 220 0
-221 68 0
-221 57 0
-221 10 0
-221 149 0
-221 -124 0
221 -68 -57 -10 -149 124 0
-222 -2 0
-222 136 0
-222 49 0
-222 -58 0
-222 81 0
222 2 -136 -49 58 -81 0
-223 -147 0
-223 84 0
-223 113 0
-223 -157 0
-223 124 0
223 147 -84 -113 157 -124 0
-224 -93 0
-224 98 0
-224 -158 0
-224 171 0
-224 142 0
224 93 -98 158 -171 -142 0
-225 -16 0
-225 -172 0
-225 36 0
-225 38 0
-225 22 0
225 16 172 -36 -38 -22 0
221 222 223 224 225 0
-226 -2 0
-226 14 0
-226 184 0
-226 46 0
-226 67 0
226 2 -14 -184 -46 -67 0
-227 -35 0
-227 -30 0
-227 75 0
-227 31 0
-227 6 0
227 35 30 -75 -31 -6 0
-228 -146 0
-228 -75 0
-228 -114 0
-228 153 0
-228 182 0
228 146 75 114 -153 -182 0
-229 -124 0
-229 -127 0
-229 -30 0
-229 -148 0
-229 44 0
229 124 127 30 148 -44 0
-230 48 0
-230 77 0
-230 -188 0
-230 -149 0
-230 174 0
230 -48 -77 188 149 -174 0
226 227 228 229 230 0
-231 82 0
-231 -96 0
-231 -124 0
-231 110 0
-231 -9 0
231 -82 96 124 -110 9 0
-232 -5 0
-232 -28 0
-232 -30 0
-232 63 0
-232 -76 0
232 5 28 30 -63 76 0
-233 45 0
-233 -56 0
-233 60 0
-233 -50 0
-233 31 0
233 -45 56 -60 50 -31 0
-234 -185 0
-234 99 0
-234 -68 0
-234 106 0
-234 17 0
234 185 -99 68 -106 -17 0
-235 147 0
-235 -174 0
-235 -104 0
-235 -107 0
-235 -183 0
235 -147 174 104 107 183 0
231 232 233 234 235 0
-236 166 0
-236 4 0
-236 172 0
-236 -111 0
-236 -131 0
236 -166 -4 -172 111 131 0
-237 -40 0
-237 -72 0
-237 21 0
-237 115 0
-237 -157 0
237 40 72 -21 -115 157 0
-238 141 0
-238 21 0
-238 129 0
-238 -6 0
-238 3 0
238 -141 -21 -129 6 -3 0
-239 86 0
-239 -84 0
-239 97 0
-239 -36 0
-239 87 0
239 -86 84 -97 36 -87 0
-240 -178 0
-240 -174 0
-240 39 0
-240 20 0
-240 -165 0
240 178 174 -39 -20 165 0
236 237 238 239 240 0
-241 106 0
-241 -85 0
-241 165 0
-241 -89 0
-241 154 0
241 -106 85 -165 89 -154 0
-242 -154 0
-242 88 0
-242 -165 0
-242 -16 0
-242 -102 0
242 154 -88 165 16 102 0
-243 190 0
-243 1 0
-243 -50 0
-243 46 0
-243 -113 0
243 -190 -1 50 -46 113 0
-244 152 0
-244 148 0
-244 87 0
-244 81 0
-244 -150 0
244 -152 -148 -87 -81 150 0
-245 -130 0
-245 47 0
-245 158 0
-245 14 0
-245 125 0
245 130 -47 -158 -14 -125 0
241 242 243 244 245 0
-246 -97 0
-246 -107 0
-246 -102 0
-246 22 0
-246 -120 0
246 97 107 102 -22 120 0
-247 -146 0
-247 -7 0
-247 176 0
-247 -37 0
-247 -178 0
247 146 7 -176 37 178 0
-248 48 0
-248 -143 0
-248 -99 0
-248 -100 0
-248 160 0
248 -48 143 99 100 -160 0
-249 42 0
-249 -148 0
-249 186 0
-249 -86 0
-249 -125 0
249 -42 148 -186 86 125 0
-250 137 0
-250 23 0
-250 28 0
-250 -18 0
-250 171 0
250 -137 -23 -28 18 -171 0
246 247 248 249 250 0
-251 109 0
-251 -3 0
-251 71 0
-251 -136 0
-251 -144 0
251 -109 3 -71 136 144 0
-252 160 0
-252 45 0
-252 181 0
-252 112 0
-252 -166 0
252 -160 -45 -181 -112 166 0
-253 -96 0
-253 -153 0
-253 107 0
-253 -160 0
-253 -103 0
253 96 153 -107 160 103 0
-254 -96 0
-254 -186 0
-254 43 0
-254 63 0
-254 162 0
254 96 186 -43 -63 -162 0
-255 89 0
-255 -154 0
-255 146 0
-255 -20 0
-255 -166 0
255 -89 154 -146 20 166 0
251 252 253 254 255 0
-256 -118 0
-256 137 0
-256 -75 0
-256 170 0
-256 52 0
256 118 -137 75 -170 -52 0
-257 -67 0
-257 -4 0
-257 184 0
-257 -173 0
-257 87 0
257 67 4 -184 173 -87 0
-258 -1 0
-258 116 0
-258 -170 0
-258 -189 0
-258 -91 0
258 1 -116 170 189 91 0
-259 -60 0
-259 -48 0
-259 138 0
-259 -147 0
-259 91 0
259 60 48 -138 147 -91 0
-260 42 0
-260 -122 0
-260 149 0
-260 145 0
-260 -127 0
260 -42 122 -149 -145 127 0
256 257 258 259 260 0
-261 -104 0
-261 68 0
-261 -147 0
-261 -33 0
-261 -48 0
261 104 -68 147 33 48 0
-262 34 0
-262 163 0
-262 70 0
-262 -89 0
-262 -165 0
262 -34 -163 -70 89 165 0
-263 -157 0
-263 188 0
-263 -165 0
-263 -158 0
-263 167 0
263 157 -188 165 158 -167 0
-264 87 0
-264 89 0
-264 148 0
-264 -84 0
-264 143 0
264 -87 -89 -148 84 -143 0
-265 -185 0
-265 -140 0
-265 -27 0
-265 80 0
-265 48 0
265 185 140 27 -80 -48 0
261 262 263 264 265 0
-266 -3 0
-266 -185 0
-266 137 0
-266 173 0
-266 -142 0
266 3 185 -137 -173 142 0
-267 180 0
-267 -73 0
-267 -37 0
-267 136 0
-267 -38 0
267 -180 73 37 -136 38 0
-268 160 0
-268 143 0
-268 -24 0
-268 179 0
-268 46 0
268 -160 -143 24 -179 -46 0
-269 116 0
-269 -105 0
-269 68 0
-269 165 0
-269 -96 0
269 -116 105 -68 -165 96 0
-270 -113 0
-270 54 0
-270 -82 0
-270 -22 0
-270 -52 0
270 113 -54 82 22 52 0
266 267 268 269 270 0
-271 22 0
-271 3 0
-271 97 0
-271 -38 0
-271 180 0
271 -22 -3 -97 38 -180 0
-272 82 0
-272 -123 0
-272 -117 0
-272 -41 0
-272 142 0
272 -82 123 117 41 -142 0
-273 -63 0
-273 187 0
-273 -189 0
-273 24 0
-273 -140 0
273 63 -187 189 -24 140 0
-274 -62 0
-274 36 0
-274 -75 0
-274 76 0
-274 -87 0
274 62 -36 75 -76 87 0
-275 11 0
-275 -158 0
-275 147 0
-275 -145 0
-275 56 0
275 -11 158 -147 145 -56 0
271 272 273 274 275 0
-276 -53 0
-276 121 0
-276 -84 0
-276 155 0
-276 177 0
276 53 -121 84 -155 -177 0
-277 143 0
-277 57 0
-277 -43 0
-277 10 0
-277 -27 0
277 -143 -57 43 -10 27 0
-278 -50 0
-278 -17 0
-278 161 0
-278 84 0
-278 101 0
278 50 17 -161 -84 -101 0
-279 139 0
-279 154 0
-279 -47 0
-279 -187 0
-279 -100 0
279 -139 -154 47 187 100 0
-280 -5 0
-280 19 0
-280 175 0
-280 105 0
-280 89 0
280 5 -19 -175 -105 -89 0
276 277 278 279 280 0
-281 99 0
-281 -40 0
-281 -118 0
-281 -84 0
-281 108 0
281 -99 40 118 84 -108 0
-282 -33 0
-282 103 0
-282 -169 0
-282 22 0
-282 -60 0
282 33 -103 169 -22 60 0
-283 -150 0
-283 -103 0
-283 148 0
-283 13 0
-283 -5 0
283 150 103 -148 -13 5 0
-284 56 0
-284 -45 0
-284 -169 0
-284 -168 0
-284 -74 0
284 -56 45 169 168 74 0
-285 -86 0
-285 92 0
-285 137 0
-285 -155 0
-285 144 0
285 86 -92 -137 155 -144 0
281 282 283 284 285 0
-286 15 0
-286 -59 0
-286 -32 0
-286 118 0
-286 -85 0
286 -15 59 32 -118 85 0
-287 -168 0
-287 176 0
-287 -150 0
-287 70 0
-287 -24 0
287 168 -176 150 -70 24 0
-288 -71 0
-288 -64 0
-288 127 0
-288 -70 0
-288 -190 0
288 71 64 -127 70 190 0
-289 -116 0
-289 -120 0
-289 137 0
-289 -67 0
-289 -175 0
289 116 120 -137 67 175 0
-290 73 0
-290 149 0
-290 -178 0
-290 162 0
-290 103 0
290 -73 -149 178 -162 -103 0
286 287 288 289 290 0
-291 -61 0
-291 -71 0
-291 26 0
-291 164 0
-291 32 0
291 61 71 -26 -164 -32 0
-292 127 0
-292 -31 0
-292 -135 0
-292 -103 0
-292 45 0
292 -127 31 135 103 -45 0
-293 91 0
-293 145 0
-293 14 0
-293 -73 0
-293 53 0
293 -91 -145 -14 73 -53 0
-294 -43 0
-294 -48 0
-294 73 0
-294 61 0
-294 -78 0
294 43 48 -73 -61 78 0
-295 50 0
-295 -99 0
-295 6 0
-295 -40 0
-295 100 0
295 -50 99 -6 40 -100 0
291 292 293 294 295 0
-296 84 0
-296 -132 0
-296 -15 0
-296 -102 0
-296 -25 0
296 -84 132 15 102 25 0
-297 -15 0
-297 65 0
-297 -46 0
-297 109 0
-297 -129 0
297 15 -65 46 -109 129 0
-298 130 0
-298 53 0
-298 -156 0
-298 -125 0
-298 -109 0
298 -130 -53 156 125 109 0
-299 -8 0
-299 187 0
-299 -93 0
-299 99 0
-299 -113 0
299 8 -187 93 -99 113 0
-300 -88 0
-300 -128 0
-300 -185 0
-300 -118 0
-300 -152 0
300 88 128 185 118 152 0
296 297 298 299 300 0
-301 7 0
-301 -89 0
-301 11 0
-301 -131 0
-301 61 0
301 -7 89 -11 131 -61 0
-302 165 0
-302 -20 0
-302 44 0
-302 148 0
-302 -127 0
302 -165 20 -44 -148 127 0
-303 -91 0
-303 -93 0
-303 133 0
-303 151 0
-303 39 0
303 91 93 -133 -151 -39 0
-304 101 0
-304 -130 0
-304 155 0
-304 -90 0
-304 -167 0
304 -101 130 -155 90 167 0
-305 -74 0
-305 -5 0
-305 -63 0
-305 -124 0
-305 -51 0
305 74 5 63 124 51 0
301 302 303 304 305 0
-306 -82 0
-306 -190 0
-306 188 0
-306 -108 0
-306 139 0
306 82 190 -188 108 -139 0
-307 -23 0
-307 -179 0
-307 164 0
-307 -109 0
-307 136 0
307 23 179 -164 109 -136 0
-308 -80 0
-308 -75 0
-308 -154 0
-308 -173 0
-308 -148 0
308 80 75 154 173 148 0
-309 8 0
-309 -93 0
-309 104 0
-309 119 0
-309 -31 0
309 -8 93 -104 -119 31 0
-310 -113 0
-310 101 0
-310 -176 0
-310 159 0
-310 -140 0
310 113 -101 176 -159 140 0
306 307 308 309 310 0
-311 58 0
-311 -75 0
-311 184 0
-311 -118 0
-311 119 0
311 -58 75 -184 118 -119 0
-312 -141 0
-312 49 0
-312 115 0
-312 38 0
-312 -92 0
312 141 -49 -115 -38 92 0
-313 -30 0
-313 -76 0
-313 40 0
-313 -153 0
-313 128 0
313 30 76 -40 153 -128 0
-314 -94 0
-314 -5 0
-314 -129 0
-314 177 0
-314 155 0
314 94 5 129 -177 -155 0
-315 169 0
-315 102 0
-315 -23 0
-315 175 0
-315 142 0
315 -169 -102 23 -175 -142 0
311 312 313 314 315 0
-316 -10 0
-316 -23 0
-316 -139 0
-316 -110 0
-316 -13 0
316 10 23 139 110 13 0
-317 -103 0
-317 -137 0
-317 5 0
-317 111 0
-317 -61 0
317 103 137 -5 -111 61 0
-318 81 0
-318 37 0
-318 107 0
-318 -126 0
-318 178 0
318 -81 -37 -107 126 -178 0
-319 -25 0
-319 188 0
-319 125 0
-319 52 0
-319 100 0
319 25 -188 -125 -52 -100 0
-320 -16 0
-320 18 0
-320 -20 0
-320 4 0
-320 38 0
320 16 -18 20 -4 -38 0
316 317 318 319 320 0
-321 -22 0
-321 91 0
-321 54 0
-321 -130 0
-321 -119 0
321 22 -91 -54 130 119 0
-322 -125 0
-322 -166 0
-322 -163 0
-322 162 0
-322 -140 0
322 125 166 163 -162 140 0
-323 44 0
-323 -185 0
-323 -103 0
-323 107 0
-323 83 0
323 -44 185 103 -107 -83 0
-324 100 0
-324 150 0
-324 -111 0
-324 109 0
-324 -124 0
324 -100 -150 111 -109 124 0
-325 -33 0
-325 99 0
-325 -80 0
-325 127 0
-325 138 0
325 33 -99 80 -127 -138 0
321 322 323 324 325 0
-326 132 0
-326 150 0
-326 3 0
-326 -58 0
-326 -8 0
326 -132 -150 -3 58 8 0
-327 162 0
-327 -39 0
-327 -43 0
-327 139 0
-327 -166 0
327 -162 39 43 -139 166 0
-328 10 0
-328 69 0
-328 -32 0
-328 98 0
-328 57 0
328 -10 -69 32 -98 -57 0
-329 15 0
-329 -121 0
-329 157 0
-329 105 0
-329 -149 0
329 -15 121 -157 -105 149 0
-330 185 0
-330 -43 0
-330 -42 0
-330 139 0
-330 -52 0
330 -185 43 42 -139 52 0
326 327 328 329 330 0
-331 58 0
-331 -105 0
-331 127 0
-331 -48 0
-331 -172 0
331 -58 105 -127 48 172 0
-332 160 0
-332 -135 0
-332 -185 0
-332 156 0
-332 117 0
332 -160 135 185 -156 -117 0
-333 -18 0
-333 -108 0
-333 2 0
-333 -130 0
-333 -120 0
333 18 108 -2 130 120 0
-334 40 0
-334 14 0
-334 150 0
-334 -190 0
-334 -112 0
334 -40 -14 -150 190 112 0
-335 117 0
-335 140 0
-335 -30 0
-335 -62 0
-335 1 0
335 -117 -140 30 62 -1 0
331 332 333 334 335 0
-336 -74 0
-336 -94 0
-336 123 0
-336 95 0
-336 -30 0
336 74 94 -123 -95 30 0
-337 80 0
-337 69 0
-337 36 0
-337 -185 0
-337 137 0
337 -80 -69 -36 185 -137 0
-338 -56 0
-338 -57 0
-338 -98 0
-338 -51 0
-338 58 0
338 56 57 98 51 -58 0
-339 -149 0
-339 135 0
-339 -69 0
-339 -9 0
-339 92 0
339 149 -135 69 9 -92 0
-340 154 0
-340 188 0
-340 -13 0
-340 -133 0
-340 -7 0
340 -154 -188 13 133 7 0
336 337 338 339 340 0
-341 -115 0
-341 -92 0
-341 -174 0
-341 -96 0
-341 -186 0
341 115 92 174 96 186 0
-342 31 0
-342 157 0
-342 93 0
-342 -23 0
-342 86 0
342 -31 -157 -93 23 -86 0
-343 -13 0
-343 -50 0
-343 148 0
-343 -89 0
-343 173 0
343 13 50 -148 89 -173 0
-344 184 0
-344 -94 0
-344 124 0
-344 -179 0
-344 79 0
344 -184 94 -124 179 -79 0
-345 -154 0
-345 104 0
-345 99 0
-345 -139 0
-345 -28 0
345 154 -104 -99 139 28 0
341 342 343 344 345 0
-346 -11 0
-346 115 0
-346 175 0
-346 2 0
-346 112 0
346 11 -115 -175 -2 -112 0
-347 108 0
-347 -96 0
-347 133 0
-347 189 0
-347 -74 0
347 -108 96 -133 -189 74 0
-348 -166 0
-348 160 0
-348 -3 0
-348 148 0
-348 -129 0
348 166 -160 3 -148 129 0
-349 179 0
-349 -52 0
-349 161 0
-349 -20 0
-349 -9 0
349 -179 52 -161 20 9 0
-350 133 0
-350 -33 0
-350 -185 0
-350 161 0
-350 -26 0
350 -133 33 185 -161 26 0
346 347 348 349 350 0
-351 102 0
-351 -52 0
-351 -88 0
-351 50 0
-351 150 0
351 -102 52 88 -50 -150 0
-352 -9 0
-352 188 0
-352 49 0
-352 -85 0
-352 -116 0
352 9 -188 -49 85 116 0
-353 -72 0
-353 107 0
-353 -120 0
-353 103 0
-353 7 0
353 72 -107 120 -103 -7 0
-354 -96 0
-354 59 0
-354 -129 0
-354 16 0
-354 -159 0
354 96 -59 129 -16 159 0
-355 -128 0
-355 -52 0
-355 -121 0
-355 -150 0
-355 -71 0
355 128 52 121 150 71 0
351 352 353 354 355 0
-356 69 0
-356 66 0
-356 -136 0
-356 3 0
-356 -58 0
356 -69 -66 136 -3 58 0
-357 -129 0
-357 -156 0
-357 23 0
-357 103 0
-357 -127 0
357 129 156 -23 -103 127 0
-358 64 0
-358 184 0
-358 -144 0
-358 -71 0
-358 121 0
358 -64 -184 144 71 -121 0
-359 -144 0
-359 61 0
-359 97 0
-359 -10 0
-359 149 0
359 144 -61 -97 10 -149 0
-360 41 0
-360 -141 0
-360 -12 0
-360 136 0
-360 50 0
360 -41 141 12 -136 -50 0
356 357 358 359 360 0
-361 17 0
-361 57 0
-361 42 0
-361 4 0
-361 133 0
361 -17 -57 -42 -4 -133 0
-362 -14 0
-362 130 0
-362 -46 0
-362 -82 0
-362 -49 0
362 14 -130 46 82 49 0
-363 -114 0
-363 -95 0
-363 46 0
-363 -188 0
-363 78 0
363 114 95 -46 188 -78 0
-364 101 0
-364 28 0
-364 -157 0
-364 30 0
-364 -154 0
364 -101 -28 157 -30 154 0
-365 48 0
-365 -117 0
-365 27 0
-365 105 0
-365 -71 0
365 -48 117 -27 -105 71 0
361 362 363 364 365 0
-366 -10 0
-366 -74 0
-366 63 0
-366 -48 0
-366 -52 0
366 10 74 -63 48 52 0
-367 8 0
-367 138 0
-367 54 0
-367 -94 0
-367 164 0
367 -8 -138 -54 94 -164 0
-368 17 0
-368 185 0
-368 -36 0
-368 156 0
-368 -161 0
368 -17 -185 36 -156 161 0
-369 129 0
-369 162 0
-369 82 0
-369 -122 0
-369 114 0
369 -129 -162 -82 122 -114 0
-370 128 0
-370 -26 0
-370 -120 0
-370 71 0
-370 -189 0
370 -128 26 120 -71 189 0
366 367 368 369 370 0
-371 -85 0
-371 -174 0
-371 -71 0
-371 -67 0
-371 15 0
371 85 174 71 67 -15 0
-372 -20 0
-372 -91 0
-372 159 0
-372 -186 0
-372 -143 0
372 20 91 -159 186 143 0
-373 87 0
-373 186 0
-373 -174 0
-373 -158 0
-373 -168 0
373 -87 -186 174 158 168 0
-374 -63 0
-374 -189 0
-374 70 0
-374 84 0
-374 141 0
374 63 189 -70 -84 -141 0
-375 -166 0
-375 -89 0
-375 -124 0
-375 -158 0
-375 10 0
375 166 89 124 158 -10 0
371 372 373 374 375 0
-376 -64 0
-376 -123 0
-376 53 0
-376 65 0
-376 -9 0
376 64 123 -53 -65 9 0
-377 -101 0
-377 10 0
-377 -16 0
-377 174 0
-377 -119 0
377 101 -10 16 -174 119 0
-378 -40 0
-378 64 0
-378 126 0
-378 -16 0
-378 128 0
378 40 -64 -126 16 -128 0
-379 -14 0
-379 136 0
-379 -43 0
-379 87 0
-379 99 0
379 14 -136 43 -87 -99 0
-380 -177 0
-380 -32 0
-380 162 0
-380 -5 0
-380 -24 0
380 177 32 -162 5 24 0
376 377 378 379 380 0
-381 6 0
-381 -112 0
-381 3 0
-381 129 0
-381 -167 0
381 -6 112 -3 -129 167 0
-382 143 0
-382 29 0
-382 -82 0
-382 36 0
-382 22 0
382 -143 -29 82 -36 -22 0
-383 128 0
-383 -109 0
-383 -188 0
-383 64 0
-383 122 0
383 -128 109 188 -64 -122 0
-384 -7 0
-384 30 0
-384 -129 0
-384 -105 0
-384 -162 0
384 7 -30 129 105 162 0
-385 -19 0
-385 6 0
-385 -72 0
-385 45 0
-385 125 0
385 19 -6 72 -45 -125 0
381 382 383 384 385 0
-386 11 0
-386 108 0
-386 -135 0
-386 -46 0
-386 105 0
386 -11 -108 135 46 -105 0
-387 -177 0
-387 33 0
-387 -56 0
-387 -152 0
-387 -113 0
387 177 -33 56 152 113 0
-388 167 0
-388 -135 0
-388 -169 0
-388 16 0
-388 -156 0
388 -167 135 169 -16 156 0
-389 4 0
-389 174 0
-389 162 0
-389 151 0
-389 -136 0
389 -4 -174 -162 -151 136 0
-390 -29 0
-390 -107 0
-390 170 0
-390 -2 0
-390 -35 0
390 29 107 -170 2 35 0
386 387 388 389 390 0
-391 -45 0
-391 129 0
-391 79 0
-391 65 0
-391 -141 0
391 45 -129 -79 -65 141 0
-392 -83 0
-392 -23 0
-392 130 0
-392 -166 0
-392 150 0
392 83 23 -130 166 -150 0
-393 77 0
-393 -93 0
-393 -60 0
-393 -64 0
-393 167 0
393 -77 93 60 64 -167 0
-394 -161 0
-394 -7 0
-394 26 0
-394 127 0
-394 11 0
394 161 7 -26 -127 -11 0
-395 -54 0
-395 49 0
-395 84 0
-395 -72 0
-395 -110 0
395 54 -49 -84 72 110 0
391 392 393 394 395 0
-396 -39 0
-396 68 0
-396 -42 0
-396 -98 0
-396 7 0
396 39 -68 42 98 -7 0
-397 -18 0
-397 147 0
-397 -134 0
-397 -55 0
-397 120 0
397 18 -147 134 55 -120 0
-398 70 0
-398 8 0
-398 129 0
-398 -34 0
-398 -144 0
398 -70 -8 -129 34 144 0
-399 29 0
-399 -74 0
-399 -48 0
-399 -162 0
-399 128 0
399 -29 74 48 162 -128 0
-400 -72 0
-400 2 0
-400 47 0
-400 -138 0
-400 -167 0
400 72 -2 -47 138 167 0
396 397 398 399 400 0
-401 -77 0
-401 -76 0
-401 25 0
-401 -162 0
-401 -111 0
401 77 76 -25 162 111 0
-402 92 0
-402 -169 0
-402 -28 0
-402 190 0
-402 -52 0
402 -92 169 28 -190 52 0
-403 138 0
-403 27 0
-403 95 0
-403 -137 0
-403 151 0
403 -138 -27 -95 137 -151 0
-404 -47 0
-404 103 0
-404 -70 0
-404 -175 0
-404 113 0
404 47 -103 70 175 -113 0
-405 171 0
-405 93 0
-405 -53 0
-405 -16 0
-405 148 0
405 -171 -93 53 16 -148 0
401 402 403 404 405 0
-406 55 0
-406 -112 0
-406 -47 0
-406 -132 0
-406 -110 0
406 -55 112 47 132 110 0
-407 124 0
-407 120 0
-407 167 0
-407 -82 0
-407 -107 0
407 -124 -120 -167 82 107 0
-408 20 0
-408 39 0
-408 -135 0
-408 53 0
-408 33 0
408 -20 -39 135 -53 -33 0
-409 100 0
-409 39 0
-409 113 0
-409 153 0
-409 126 0
409 -100 -39 -113 -153 -126 0
-410 70 0
-410 13 0
-410 -90 0
-410 -33 0
-410 -32 0
410 -70 -13 90 33 32 0
406 407 408 409 410 0
-411 -177 0
-411 4 0
-411 -186 0
-411 -101 0
-411 75 0
411 177 -4 186 101 -75 0
-412 -126 0
-412 145 0
-412 -138 0
-412 -75 0
-412 -42 0
412 126 -145 138 75 42 0
-413 -165 0
-413 -161 0
-413 -98 0
-413 -74 0
-413 -19 0
413 165 161 98 74 19 0
-414 -114 0
-414 41 0
-414 -50 0
-414 51 0
-414 118 0
414 114 -41 50 -51 -118 0
-415 -145 0
-415 132 0
-415 -98 0
-415 182 0
-415 140 0
415 145 -132 98 -182 -140 0
411 412 413 414 415 0
-416 -17 0
-416 10 0
-416 -105 0
-416 -138 0
-416 141 0
416 17 -10 105 138 -141 0
-417 -2 0
-417 190 0
-417 183 0
-417 -149 0
-417 -161 0
417 2 -190 -183 149 161 0
-418 -185 0
-418 -159 0
-418 -43 0
-418 190 0
-418 81 0
418 185 159 43 -190 -81 0
-419 -20 0
-419 64 0
-419 -180 0
-419 -42 0
-419 -123 0
419 20 -64 180 42 123 0
-420 -95 0
-420 91 0
-420 -109 0
-420 49 0
-420 -4 0
420 95 -91 109 -49 4 0
416 417 418 419 420 0
-421 -174 0
-421 -157 0
-421 52 0
-421 -28 0
-421 178 0
421 174 157 -52 28 -178 0
-422 88 0
-422 -73 0
-422 176 0
-422 -93 0
-422 -134 0
422 -88 73 -176 93 134 0
-423 -13 0
-423 189 0
-423 -49 0
-423 -175 0
-423 140 0
423 13 -189 49 175 -140 0
-424 66 0
-424 116 0
-424 -56 0
-424 14 0
-424 48 0
424 -66 -116 56 -14 -48 0
-425 -10 0
-425 -121 0
-425 -143 0
-425 168 0
-425 36 0
425 10 121 143 -168 -36 0
421 422 423 424 425 0
-426 -76 0
-426 89 0
-426 128 0
-426 -61 0
-426 -103 0
426 76 -89 -128 61 103 0
-427 -21 0
-427 89 0
-427 188 0
-427 -122 0
-427 -32 0
427 21 -89 -188 122 32 0
-428 -38 0
-428 35 0
-428 6 0
-428 -78 0
-428 110 0
428 38 -35 -6 78 -110 0
-429 71 0
-429 172 0
-429 -15 0
-429 -183 0
-429 -56 0
429 -71 -172 15 183 56 0
-430 -35 0
-430 167 0
-430 -182 0
-430 -12 0
-430 63 0
430 35 -167 182 12 -63 0
426 427 428 429 430 0
